m = 3;
n = 47;
l = [300, 200, 200, ];
s = [12, 8, 16, 5, 12, 5, 13, 20, 13, 18, 7, 6, 9, 9, 4, 25, 5, 17, 3, 16, 25, 21, 14, 19, 14, 6, 16, 9, 20, 13, 10, 16, 19, 22, 14, 10, 11, 15, 13, 15, 8, 22, 24, 3, 25, 19, 21, ];
x = [-30, -31, 52, -13, -67, 49, 5, -65, -4, 23, 25, -43, -77, -21, -52, -41, -92, -65, 19, -41, -38, 24, -43, -35, -55, -49, 57, -23, -57, -39, -17, -12, -47, 16, 1, -26, 4, -51, -23, -71, -8, 12, -19, -12, 30, 12, -38, -10, ];
y = [64, 5, 5, 69, 68, 6, 22, 77, -2, 12, 6, -26, 99, 58, 7, 51, 28, 30, 97, 83, -33, 29, 20, -25, 14, 33, 24, 55, 73, -4, 20, 12, 98, 9, 7, 30, 15, -23, -10, -19, 32, -25, -24, 12, 12, -56, -22, 20, ];
% lower_bound = 862;
length = [30, 23, 23, ];
%[26]
%[]
%[6]
%[]
%[21]
%[]
%[]
%[]
%[]
%[]
%[]
%[]
%[]
%[]
%[]
%[]
%[]
%[]
%[]
%[18]
%[]
%[]
%[40]
%[]
%[]
%[3]
%[]
%[]
%[]
%[13]
%[27]
%[0]
%[19, 32]
%[]
%[]
%[]
%[12, 28]
%[7, 15]
%[4]
%[]
%[]
%[35]
%[]
%[]
%[25]
%[]
%[]
%[17]
%[16]
%[22, 30]
%[]
%[]
%[]
%[24]
%[]
%[14]
%[]
%[]
%[]
%[]
%[1, 39]
%[]
%[29]
%[37]
%[]
%[]
%[11, 46]
%[23]
%[20]
%[38]
%[]
%[]
%[31, 42, 43]
%[]
%[]
%[]
%[]
%[]
%[]
%[]
%[8, 45]
%[]
%[]
%[41]
%[]
%[]
%[]
%[34]
%[]
%[]
%[]
%[]
%[]
%[]
%[10, 33]
%[36]
%[]
%[2, 5, 9, 44]
%[]
%[]
%[16, 0, 13, 0, 21, 0, 0, 0, 0, 0, 0, 0, 0, 0, 0, 0, 0, 0, 0, 3, 0, 0, 8, 0, 0, 5, 0, 0, 0, 9, 9, 12, 35, 0, 0, 0, 29, 45, 12, 0, 0, 10, 0, 0, 6, 0, 0, 17, 5, 24, 0, 0, 0, 14, 0, 4, 0, 0, 0, 0, 23, 0, 13, 15, 0, 0, 27, 19, 25, 13, 0, 0, 43, 0, 0, 0, 0, 0, 0, 0, 32, 0, 0, 22, 0, 0, 0, 14, 0, 0, 0, 0, 0, 0, 29, 11, 0, 64, 0, 0]
